
        $ From http://www.csplib.org/Problems/prob009/data/helmut.pdf
        $ Problem number 152
        $ Sequence length : 25
        language ESSENCE' 1.0
        letting sizemaster be 513
        letting sizes be sequence(6,9,10,17,19,24,28,29,37,39,64,65,68,81,98,99,102,115,145,147,153,159,165,189,201)
        